NAME : LRC2_6_5
TYPE : PDPTW
DIMENSION : 150
EDGE_WEIGHT_TYPE : EXACT_2D
NODE_COORD_SECTION
1 1 0
2 150 0
3 0 0
4 27 3452
5 606 2
6 240 540
7 3 199
8 2287 10
9 61 84
10 10 287
11 103 20
12 0 543
13 10 115
14 474 7
15 2634 2646
16 8 230
17 1646 10
18 55 68
19 10 184
20 180 27
21 0 386
22 -20 1175
23 0 12
24 646 984
25 13 257
26 771 10
27 57 155
28 10 202
29 26 -30
30 329 0
31 10 369
32 503 17
33 808 1128
34 18 89
35 1339 10
36 84 231
37 10 0
38 240 -20
39 214 0
40 -10 766
41 0 22
42 449 778
43 23 180
44 294 10
45 240 73
46 10 0
47 265 20
48 0 410
49 20 220
50 261 27
51 683 829
52 28 160
53 477 10
54 289 130
55 10 396
56 255 -20
57 39 0
58 -30 1342
59 0 32
60 2330 2445
61 33 115
62 404 10
63 250 228
64 10 0
65 89 22
66 0 603
67 20 199
68 11 37
69 33 582
70 38 159
71 666 10
72 47 277
73 10 0
74 269 -18
75 245 0
76 30 855
77 197 42
78 423 751
79 43 74
80 3362 10
81 140 140
82 10 0
83 241 -10
84 347 0
85 20 284
86 254 47
87 224 426
88 48 136
89 2529 10
90 250 124
91 10 409
92 299 24
93 0 322
94 10 725
95 557 52
96 318 627
97 53 212
98 983 10
99 259 59
100 10 71
101 104 21
102 0 276
103 -20 592
104 0 57
105 2478 2678
106 58 57
107 1035 10
108 232 121
109 10 0
110 132 -6
111 394 0
112 24 1533
113 93 62
114 559 742
115 63 143
116 312 10
117 248 41
118 10 24
119 263 30
120 0 218
121 20 239
122 312 67
123 260 765
124 68 259
125 1222 10
126 38 139
127 10 565
128 41 14
129 0 286
130 10 587
131 54 72
132 886 965
133 73 102
134 3498 10
135 43 286
136 10 0
137 160 20
138 0 516
139 13 350
140 598 77
141 785 960
142 78 88
143 2664 10
144 122 127
145 10 0
146 63 -10
147 302 0
148 16 184
149 511 82
150 2584 2660
PICKUP_AND_DELIVERY_SECTION
1 0 0 0 0 0 0
2 0 0 0 0 4823 0
3 0 0 0 0 0 125
4 0 0 0 0 0 0
5 0 0 0 0 107 107
6 0 0 0 0 0 0
7 0 0 0 0 -19 -19
8 0 0 0 0 0 0
9 0 0 0 0 1274 1274
10 0 0 0 0 5 0
11 0 0 0 0 385 385
12 0 0 0 0 143 143
13 0 0 0 0 10 10
14 0 0 0 0 141 141
15 0 0 0 0 0 0
16 0 0 0 0 -10 -10
17 0 0 0 0 0 0
18 0 0 0 0 450 450
19 0 0 0 0 10 0
20 0 0 0 0 1656 1656
21 0 0 0 0 159 159
22 0 0 0 0 10 10
23 0 0 0 0 4 4
24 0 0 0 0 189 189
25 0 0 0 0 10 10
26 0 0 0 0 139 0
27 0 0 0 0 176 176
28 0 0 0 0 15 0
29 0 0 0 0 2366 2366
30 0 0 0 0 231 231
31 0 0 0 0 10 10
32 0 0 0 0 132 132
33 0 0 0 0 83 83
34 0 0 0 0 -20 -20
35 0 0 0 0 0 0
36 0 0 0 0 2209 2209
37 0 0 0 0 20 20
38 0 0 0 0 2280 2280
39 0 0 0 0 110 110
40 0 0 0 0 10 10
41 0 0 0 0 74 74
42 0 0 0 0 0 0
43 0 0 0 0 -14 -14
44 0 0 0 0 0 0
45 0 0 0 0 317 317
46 0 0 0 0 25 25
47 0 0 0 0 768 768
48 0 0 0 0 134 134
49 0 0 0 0 10 10
50 0 0 0 0 59 59
51 0 0 0 0 577 577
52 0 0 0 0 10 10
53 0 0 0 0 143 0
54 0 0 0 0 1341 1341
55 0 0 0 0 30 0
56 0 0 0 0 1165 1165
57 0 0 0 0 234 234
58 0 0 0 0 10 10
59 0 0 0 0 208 208
60 0 0 0 0 562 562
61 0 0 0 0 10 10
62 0 0 0 0 252 0
63 0 0 0 0 3062 3062
64 0 0 0 0 35 35
65 0 0 0 0 3650 3650
66 0 0 0 0 105 105
67 0 0 0 0 10 10
68 0 0 0 0 183 183
69 0 0 0 0 0 0
70 0 0 0 0 15 15
71 0 0 0 0 125 0
72 0 0 0 0 650 650
73 0 0 0 0 40 40
74 0 0 0 0 2029 2029
75 0 0 0 0 212 212
76 0 0 0 0 10 10
77 0 0 0 0 149 149
78 0 0 0 0 454 454
79 0 0 0 0 -11 -11
80 0 0 0 0 0 0
81 0 0 0 0 14 14
82 0 0 0 0 45 45
83 0 0 0 0 2813 2813
84 0 0 0 0 222 222
85 0 0 0 0 10 10
86 0 0 0 0 124 124
87 0 0 0 0 0 0
88 0 0 0 0 -10 -10
89 0 0 0 0 0 0
90 0 0 0 0 372 372
91 0 0 0 0 50 0
92 0 0 0 0 1636 1636
93 0 0 0 0 258 258
94 0 0 0 0 10 10
95 0 0 0 0 47 47
96 0 0 0 0 0 0
97 0 0 0 0 -21 -21
98 0 0 0 0 0 0
99 0 0 0 0 744 744
100 0 0 0 0 55 0
101 0 0 0 0 628 628
102 0 0 0 0 77 77
103 0 0 0 0 10 10
104 0 0 0 0 45 45
105 0 0 0 0 0 0
106 0 0 0 0 23 23
107 0 0 0 0 519 0
108 0 0 0 0 2284 2284
109 0 0 0 0 60 60
110 0 0 0 0 739 739
111 0 0 0 0 18 18
112 0 0 0 0 10 10
113 0 0 0 0 113 113
114 0 0 0 0 344 344
115 0 0 0 0 20 20
116 0 0 0 0 72 0
117 0 0 0 0 1882 1882
118 0 0 0 0 65 0
119 0 0 0 0 921 921
120 0 0 0 0 109 109
121 0 0 0 0 10 10
122 0 0 0 0 71 71
123 0 0 0 0 0 0
124 0 0 0 0 10 10
125 0 0 0 0 193 0
126 0 0 0 0 1275 1275
127 0 0 0 0 70 0
128 0 0 0 0 1549 1549
129 0 0 0 0 255 255
130 0 0 0 0 10 10
131 0 0 0 0 122 122
132 0 0 0 0 63 63
133 0 0 0 0 -10 -10
134 0 0 0 0 0 0
135 0 0 0 0 482 482
136 0 0 0 0 75 75
137 0 0 0 0 422 422
138 0 0 0 0 172 172
139 0 0 0 0 10 10
140 0 0 0 0 22 22
141 0 0 0 0 67 67
142 0 0 0 0 1 1
143 0 0 0 0 208 0
144 0 0 0 0 0 88
145 0 0 0 0 80 80
146 0 0 0 0 893 893
147 0 0 0 0 53 53
148 0 0 0 0 10 10
149 0 0 0 0 281 281
150 0 0 0 0 572 572
DEPOT_SECTION
1 
-1
EOF
